32      4       
10      10      10      10      
0       0       0       0       0       4       2       15      20      31      
3       1       1       1       0       1       3       
1       7       0       6       1       3       4       14      29      
1       4       3       2       0       2       5       28      
4       2       3       5       0       2       6       19      
7       3       5       0       4       3       7       18      27      
5       4       0       6       5       2       8       25      
1       5       4       0       6       2       9       24      
5       8       4       0       2       2       10      23      
10      5       4       3       0       1       11      
9       8       3       5       0       1       12      
6       2       6       4       0       2       13      22      
9       0       4       2       3       1       16      
5       4       0       6       3       1       16      
9       1       0       6       4       2       21      30      
7       7       3       0       7       1       17      
10      0       6       6       8       1       21      
9       3       0       4       3       1       22      
3       2       4       0       3       1       26      
5       4       6       7       0       1       21      
5       5       6       4       0       1       32      
10      0       3       4       5       1       32      
10      0       2       3       4       1       32      
7       5       0       4       5       1       32      
7       0       6       3       5       1       32      
2       3       1       1       0       1       32      
10      1       0       3       6       1       32      
9       5       0       4       2       1       32      
9       3       2       0       4       1       32      
4       0       3       5       2       1       32      
6       0       9       2       2       1       32      
0       0       0       0       0       0       
